p cnf 80 370 
 1 11 21 31 41 51 61 71 0 
 2 12 22 32 42 52 62 72 0 
 3 13 23 33 43 53 63 73 0 
 4 14 24 34 44 54 64 74 0 
 5 15 25 35 45 55 65 75 0 
 6 16 26 36 46 56 66 76 0 
 7 17 27 37 47 57 67 77 0 
 8 18 28 38 48 58 68 78 0 
 9 19 29 39 49 59 69 79 0 
 10 20 30 40 50 60 70 80 0 
 -1 -2 0 
 -1 -3 0 
 -1 -4 0 
 -1 -5 0 
 -1 -6 0 
 -1 -7 0 
 -1 -8 0 
 -1 -9 0 
 -1 -10 0 
 -2 -3 0 
 -2 -4 0 
 -2 -5 0 
 -2 -6 0 
 -2 -7 0 
 -2 -8 0 
 -2 -9 0 
 -2 -10 0 
 -3 -4 0 
 -3 -5 0 
 -3 -6 0 
 -3 -7 0 
 -3 -8 0 
 -3 -9 0 
 -3 -10 0 
 -4 -5 0 
 -4 -6 0 
 -4 -7 0 
 -4 -8 0 
 -4 -9 0 
 -4 -10 0 
 -5 -6 0 
 -5 -7 0 
 -5 -8 0 
 -5 -9 0 
 -5 -10 0 
 -6 -7 0 
 -6 -8 0 
 -6 -9 0 
 -6 -10 0 
 -7 -8 0 
 -7 -9 0 
 -7 -10 0 
 -8 -9 0 
 -8 -10 0 
 -9 -10 0 
 -11 -12 0 
 -11 -13 0 
 -11 -14 0 
 -11 -15 0 
 -11 -16 0 
 -11 -17 0 
 -11 -18 0 
 -11 -19 0 
 -11 -20 0 
 -12 -13 0 
 -12 -14 0 
 -12 -15 0 
 -12 -16 0 
 -12 -17 0 
 -12 -18 0 
 -12 -19 0 
 -12 -20 0 
 -13 -14 0 
 -13 -15 0 
 -13 -16 0 
 -13 -17 0 
 -13 -18 0 
 -13 -19 0 
 -13 -20 0 
 -14 -15 0 
 -14 -16 0 
 -14 -17 0 
 -14 -18 0 
 -14 -19 0 
 -14 -20 0 
 -15 -16 0 
 -15 -17 0 
 -15 -18 0 
 -15 -19 0 
 -15 -20 0 
 -16 -17 0 
 -16 -18 0 
 -16 -19 0 
 -16 -20 0 
 -17 -18 0 
 -17 -19 0 
 -17 -20 0 
 -18 -19 0 
 -18 -20 0 
 -19 -20 0 
 -21 -22 0 
 -21 -23 0 
 -21 -24 0 
 -21 -25 0 
 -21 -26 0 
 -21 -27 0 
 -21 -28 0 
 -21 -29 0 
 -21 -30 0 
 -22 -23 0 
 -22 -24 0 
 -22 -25 0 
 -22 -26 0 
 -22 -27 0 
 -22 -28 0 
 -22 -29 0 
 -22 -30 0 
 -23 -24 0 
 -23 -25 0 
 -23 -26 0 
 -23 -27 0 
 -23 -28 0 
 -23 -29 0 
 -23 -30 0 
 -24 -25 0 
 -24 -26 0 
 -24 -27 0 
 -24 -28 0 
 -24 -29 0 
 -24 -30 0 
 -25 -26 0 
 -25 -27 0 
 -25 -28 0 
 -25 -29 0 
 -25 -30 0 
 -26 -27 0 
 -26 -28 0 
 -26 -29 0 
 -26 -30 0 
 -27 -28 0 
 -27 -29 0 
 -27 -30 0 
 -28 -29 0 
 -28 -30 0 
 -29 -30 0 
 -31 -32 0 
 -31 -33 0 
 -31 -34 0 
 -31 -35 0 
 -31 -36 0 
 -31 -37 0 
 -31 -38 0 
 -31 -39 0 
 -31 -40 0 
 -32 -33 0 
 -32 -34 0 
 -32 -35 0 
 -32 -36 0 
 -32 -37 0 
 -32 -38 0 
 -32 -39 0 
 -32 -40 0 
 -33 -34 0 
 -33 -35 0 
 -33 -36 0 
 -33 -37 0 
 -33 -38 0 
 -33 -39 0 
 -33 -40 0 
 -34 -35 0 
 -34 -36 0 
 -34 -37 0 
 -34 -38 0 
 -34 -39 0 
 -34 -40 0 
 -35 -36 0 
 -35 -37 0 
 -35 -38 0 
 -35 -39 0 
 -35 -40 0 
 -36 -37 0 
 -36 -38 0 
 -36 -39 0 
 -36 -40 0 
 -37 -38 0 
 -37 -39 0 
 -37 -40 0 
 -38 -39 0 
 -38 -40 0 
 -39 -40 0 
 -41 -42 0 
 -41 -43 0 
 -41 -44 0 
 -41 -45 0 
 -41 -46 0 
 -41 -47 0 
 -41 -48 0 
 -41 -49 0 
 -41 -50 0 
 -42 -43 0 
 -42 -44 0 
 -42 -45 0 
 -42 -46 0 
 -42 -47 0 
 -42 -48 0 
 -42 -49 0 
 -42 -50 0 
 -43 -44 0 
 -43 -45 0 
 -43 -46 0 
 -43 -47 0 
 -43 -48 0 
 -43 -49 0 
 -43 -50 0 
 -44 -45 0 
 -44 -46 0 
 -44 -47 0 
 -44 -48 0 
 -44 -49 0 
 -44 -50 0 
 -45 -46 0 
 -45 -47 0 
 -45 -48 0 
 -45 -49 0 
 -45 -50 0 
 -46 -47 0 
 -46 -48 0 
 -46 -49 0 
 -46 -50 0 
 -47 -48 0 
 -47 -49 0 
 -47 -50 0 
 -48 -49 0 
 -48 -50 0 
 -49 -50 0 
 -51 -52 0 
 -51 -53 0 
 -51 -54 0 
 -51 -55 0 
 -51 -56 0 
 -51 -57 0 
 -51 -58 0 
 -51 -59 0 
 -51 -60 0 
 -52 -53 0 
 -52 -54 0 
 -52 -55 0 
 -52 -56 0 
 -52 -57 0 
 -52 -58 0 
 -52 -59 0 
 -52 -60 0 
 -53 -54 0 
 -53 -55 0 
 -53 -56 0 
 -53 -57 0 
 -53 -58 0 
 -53 -59 0 
 -53 -60 0 
 -54 -55 0 
 -54 -56 0 
 -54 -57 0 
 -54 -58 0 
 -54 -59 0 
 -54 -60 0 
 -55 -56 0 
 -55 -57 0 
 -55 -58 0 
 -55 -59 0 
 -55 -60 0 
 -56 -57 0 
 -56 -58 0 
 -56 -59 0 
 -56 -60 0 
 -57 -58 0 
 -57 -59 0 
 -57 -60 0 
 -58 -59 0 
 -58 -60 0 
 -59 -60 0 
 -61 -62 0 
 -61 -63 0 
 -61 -64 0 
 -61 -65 0 
 -61 -66 0 
 -61 -67 0 
 -61 -68 0 
 -61 -69 0 
 -61 -70 0 
 -62 -63 0 
 -62 -64 0 
 -62 -65 0 
 -62 -66 0 
 -62 -67 0 
 -62 -68 0 
 -62 -69 0 
 -62 -70 0 
 -63 -64 0 
 -63 -65 0 
 -63 -66 0 
 -63 -67 0 
 -63 -68 0 
 -63 -69 0 
 -63 -70 0 
 -64 -65 0 
 -64 -66 0 
 -64 -67 0 
 -64 -68 0 
 -64 -69 0 
 -64 -70 0 
 -65 -66 0 
 -65 -67 0 
 -65 -68 0 
 -65 -69 0 
 -65 -70 0 
 -66 -67 0 
 -66 -68 0 
 -66 -69 0 
 -66 -70 0 
 -67 -68 0 
 -67 -69 0 
 -67 -70 0 
 -68 -69 0 
 -68 -70 0 
 -69 -70 0 
 -71 -72 0 
 -71 -73 0 
 -71 -74 0 
 -71 -75 0 
 -71 -76 0 
 -71 -77 0 
 -71 -78 0 
 -71 -79 0 
 -71 -80 0 
 -72 -73 0 
 -72 -74 0 
 -72 -75 0 
 -72 -76 0 
 -72 -77 0 
 -72 -78 0 
 -72 -79 0 
 -72 -80 0 
 -73 -74 0 
 -73 -75 0 
 -73 -76 0 
 -73 -77 0 
 -73 -78 0 
 -73 -79 0 
 -73 -80 0 
 -74 -75 0 
 -74 -76 0 
 -74 -77 0 
 -74 -78 0 
 -74 -79 0 
 -74 -80 0 
 -75 -76 0 
 -75 -77 0 
 -75 -78 0 
 -75 -79 0 
 -75 -80 0 
 -76 -77 0 
 -76 -78 0 
 -76 -79 0 
 -76 -80 0 
 -77 -78 0 
 -77 -79 0 
 -77 -80 0 
 -78 -79 0 
 -78 -80 0 
 -79 -80 0 
